************************************************************************
file with basedata            : mm26_.bas
initial value random generator: 829674294
************************************************************************
projects                      :  1
jobs (incl. supersource/sink ):  12
horizon                       :  83
RESOURCES
  - renewable                 :  2   R
  - nonrenewable              :  2   N
  - doubly constrained        :  0   D
************************************************************************
PROJECT INFORMATION:
pronr.  #jobs rel.date duedate tardcost  MPM-Time
    1     10      0       17        2       17
************************************************************************
PRECEDENCE RELATIONS:
jobnr.    #modes  #successors   successors
   0        1          3           1   2   3
   1        3          2           4  10
   2        3          2           7  10
   3        3          1           8
   4        3          2           5   6
   5        3          2           8   9
   6        3          2           7   9
   7        3          1           8
   8        3          1          11
   9        3          1          11
  10        3          1          11
  11        1          0        
************************************************************************
REQUESTS/DURATIONS:
jobnr. mode duration  R 1  R 2  R 3  R 4  E(W 1)
------------------------------------------------------------------------
  0      1     0       0    0    0    0     0
  1      1     6       0    6    7    0    78
  2      1     4       3    0    9    0    48
  3      1     3       9    0    0   10    57
  4      1     2       0    4   10    0    28
  5      1     5       0    8    0    6    70
  6      1     4       0    4    0    7    44
  7      1     3       0    9    8    0    51
  8      1     2       7    0    0    9    32
  9      1     1       0    9    3    0    12
 10      1     6       7    0    0    2    54
 11      1     0       0    0    0    0     0
************************************************************************
RESOURCEAVAILABILITIES:
  R 1
   105
************************************************************************
RESOURCE LIMITS:
jobnr.  l(R 1)  u(R 1)
------------------------------------------------------------------------
  0        0       0
  1        7      13
  2        7      12
  3       10      19
  4        7      14
  5        7      14
  6        6      11
  7        9      17
  8        9      16
  9        7      12
 10        5       9
 11        0       0
************************************************************************
SCENARIOS:
------------------------------------------------------------------------
RESOURCE k = 1
s = 1: (0, 131, 37, 40, 36, 84, 33, 61, 26, 9, 65, 0)
s = 2: (0, 87, 70, 73, 36, 79, 44, 78, 39, 10, 53, 0)
s = 3: (0, 80, 50, 37, 38, 71, 72, 39, 21, 16, 72, 0)
s = 4: (0, 91, 50, 75, 19, 104, 45, 67, 26, 13, 50, 0)
s = 5: (0, 73, 69, 93, 23, 60, 34, 44, 31, 14, 46, 0)
s = 6: (0, 63, 60, 77, 18, 49, 38, 33, 39, 19, 78, 0)
s = 7: (0, 116, 48, 56, 29, 51, 64, 55, 20, 13, 51, 0)
s = 8: (0, 56, 53, 47, 38, 47, 44, 34, 33, 8, 48, 0)
s = 9: (0, 61, 27, 58, 19, 79, 74, 66, 34, 11, 55, 0)
s = 10: (0, 117, 30, 85, 31, 42, 45, 70, 35, 13, 32, 0)
s = 11: (0, 79, 35, 36, 35, 83, 50, 45, 59, 8, 76, 0)
s = 12: (0, 59, 54, 50, 29, 58, 49, 61, 37, 8, 33, 0)
s = 13: (0, 56, 83, 66, 19, 67, 64, 63, 30, 11, 68, 0)
s = 14: (0, 50, 30, 57, 17, 67, 31, 66, 33, 20, 51, 0)
s = 15: (0, 83, 45, 59, 21, 47, 38, 47, 18, 13, 70, 0)
s = 16: (0, 63, 45, 47, 23, 58, 33, 34, 31, 12, 66, 0)
s = 17: (0, 102, 41, 68, 18, 59, 50, 56, 26, 16, 63, 0)
s = 18: (0, 58, 55, 81, 36, 85, 49, 47, 27, 10, 35, 0)
s = 19: (0, 123, 38, 63, 46, 84, 26, 44, 22, 15, 41, 0)
s = 20: (0, 88, 39, 53, 29, 102, 60, 33, 36, 11, 51, 0)
s = 21: (0, 56, 66, 59, 27, 82, 56, 57, 39, 12, 50, 0)
s = 22: (0, 116, 55, 61, 21, 63, 37, 30, 35, 11, 56, 0)
s = 23: (0, 80, 52, 45, 41, 39, 35, 75, 39, 15, 60, 0)
s = 24: (0, 82, 36, 44, 36, 64, 30, 57, 42, 11, 38, 0)
s = 25: (0, 85, 43, 51, 45, 47, 36, 36, 26, 15, 48, 0)
s = 26: (0, 67, 31, 48, 21, 51, 50, 69, 20, 13, 38, 0)
s = 27: (0, 90, 40, 76, 20, 61, 33, 30, 50, 14, 55, 0)
s = 28: (0, 127, 73, 37, 30, 100, 41, 44, 30, 11, 49, 0)
s = 29: (0, 57, 53, 66, 23, 40, 38, 36, 29, 17, 52, 0)
s = 30: (0, 100, 49, 50, 27, 93, 44, 58, 36, 20, 90, 0)
s = 31: (0, 51, 61, 55, 23, 57, 44, 54, 44, 12, 45, 0)
s = 32: (0, 80, 39, 77, 38, 53, 66, 54, 29, 11, 52, 0)
s = 33: (0, 109, 41, 49, 27, 51, 58, 53, 40, 11, 96, 0)
s = 34: (0, 94, 42, 60, 29, 61, 56, 29, 19, 12, 48, 0)
s = 35: (0, 97, 44, 49, 23, 65, 35, 39, 31, 12, 65, 0)
s = 36: (0, 73, 38, 57, 35, 47, 51, 37, 27, 11, 45, 0)
s = 37: (0, 76, 49, 48, 28, 93, 50, 56, 30, 12, 38, 0)
s = 38: (0, 51, 44, 87, 20, 69, 56, 66, 31, 8, 59, 0)
s = 39: (0, 128, 37, 59, 31, 82, 52, 35, 46, 9, 95, 0)
s = 40: (0, 76, 40, 39, 34, 60, 36, 56, 39, 17, 72, 0)
s = 41: (0, 88, 31, 54, 39, 67, 30, 84, 22, 14, 51, 0)
s = 42: (0, 82, 40, 58, 21, 84, 42, 36, 34, 19, 59, 0)
s = 43: (0, 97, 46, 46, 32, 103, 52, 36, 24, 17, 33, 0)
s = 44: (0, 66, 29, 42, 37, 57, 53, 60, 27, 8, 39, 0)
s = 45: (0, 46, 56, 66, 25, 63, 43, 52, 28, 9, 78, 0)
s = 46: (0, 102, 38, 58, 31, 76, 38, 67, 40, 16, 45, 0)
s = 47: (0, 135, 30, 63, 21, 44, 60, 68, 25, 11, 58, 0)
s = 48: (0, 76, 82, 81, 21, 88, 49, 41, 53, 11, 61, 0)
s = 49: (0, 74, 68, 48, 20, 49, 71, 43, 35, 14, 46, 0)
s = 50: (0, 58, 35, 83, 37, 55, 42, 59, 25, 13, 46, 0)
s = 51: (0, 76, 46, 68, 25, 73, 44, 47, 31, 13, 69, 0)
s = 52: (0, 123, 68, 71, 20, 89, 51, 32, 33, 14, 77, 0)
s = 53: (0, 93, 57, 62, 23, 71, 26, 49, 25, 12, 56, 0)
s = 54: (0, 116, 59, 39, 20, 50, 60, 74, 22, 8, 69, 0)
s = 55: (0, 80, 41, 52, 34, 64, 33, 83, 24, 10, 37, 0)
s = 56: (0, 71, 79, 56, 19, 72, 40, 43, 30, 12, 51, 0)
s = 57: (0, 62, 45, 57, 30, 77, 38, 61, 41, 8, 47, 0)
s = 58: (0, 66, 66, 72, 42, 43, 55, 34, 25, 14, 89, 0)
s = 59: (0, 69, 44, 73, 33, 54, 31, 29, 29, 13, 32, 0)
s = 60: (0, 56, 56, 35, 35, 100, 36, 79, 27, 13, 74, 0)
s = 61: (0, 92, 76, 84, 25, 123, 42, 83, 19, 12, 45, 0)
s = 62: (0, 124, 41, 44, 36, 81, 35, 37, 38, 17, 66, 0)
s = 63: (0, 108, 89, 80, 45, 78, 38, 79, 23, 17, 54, 0)
s = 64: (0, 74, 42, 63, 22, 54, 32, 38, 19, 10, 47, 0)
s = 65: (0, 124, 66, 59, 25, 42, 25, 46, 27, 11, 94, 0)
s = 66: (0, 43, 73, 31, 31, 61, 51, 34, 23, 13, 60, 0)
s = 67: (0, 69, 52, 72, 35, 80, 45, 49, 29, 14, 51, 0)
s = 68: (0, 50, 71, 47, 25, 59, 35, 59, 20, 18, 63, 0)
s = 69: (0, 47, 58, 52, 29, 63, 37, 28, 28, 9, 36, 0)
s = 70: (0, 76, 55, 48, 31, 45, 50, 46, 47, 9, 62, 0)
s = 71: (0, 79, 35, 53, 28, 106, 24, 58, 41, 11, 34, 0)
s = 72: (0, 101, 45, 39, 28, 108, 49, 42, 44, 13, 44, 0)
s = 73: (0, 98, 27, 45, 27, 65, 28, 67, 27, 10, 59, 0)
s = 74: (0, 144, 45, 52, 39, 50, 30, 64, 32, 13, 49, 0)
s = 75: (0, 68, 39, 58, 25, 49, 24, 66, 27, 11, 38, 0)
s = 76: (0, 58, 58, 72, 25, 69, 26, 66, 37, 16, 42, 0)
s = 77: (0, 42, 48, 34, 36, 60, 44, 54, 36, 7, 58, 0)
s = 78: (0, 91, 74, 55, 16, 60, 31, 53, 24, 15, 47, 0)
s = 79: (0, 55, 41, 62, 24, 100, 40, 41, 51, 14, 63, 0)
s = 80: (0, 48, 75, 53, 22, 46, 45, 61, 25, 10, 57, 0)
s = 81: (0, 86, 36, 87, 34, 76, 38, 55, 28, 13, 56, 0)
s = 82: (0, 92, 40, 71, 30, 80, 52, 47, 38, 8, 65, 0)
s = 83: (0, 61, 26, 43, 31, 53, 59, 42, 24, 9, 55, 0)
s = 84: (0, 72, 58, 47, 19, 44, 46, 39, 26, 11, 55, 0)
s = 85: (0, 64, 54, 49, 27, 84, 53, 56, 35, 14, 63, 0)
s = 86: (0, 52, 67, 51, 38, 75, 30, 75, 37, 14, 55, 0)
s = 87: (0, 120, 28, 56, 29, 84, 66, 46, 38, 13, 34, 0)
s = 88: (0, 96, 42, 53, 48, 63, 38, 61, 43, 17, 45, 0)
s = 89: (0, 84, 54, 48, 39, 61, 36, 49, 31, 15, 57, 0)
s = 90: (0, 51, 45, 57, 25, 64, 35, 37, 21, 13, 71, 0)
s = 91: (0, 55, 55, 58, 26, 93, 47, 48, 28, 12, 32, 0)
s = 92: (0, 93, 68, 32, 25, 100, 47, 59, 27, 14, 64, 0)
s = 93: (0, 105, 48, 36, 29, 83, 39, 66, 47, 15, 44, 0)
s = 94: (0, 70, 48, 87, 27, 60, 38, 61, 24, 10, 47, 0)
s = 95: (0, 89, 68, 47, 43, 53, 46, 72, 35, 14, 40, 0)
s = 96: (0, 110, 43, 93, 22, 84, 23, 55, 34, 14, 80, 0)
s = 97: (0, 70, 63, 77, 37, 66, 46, 40, 36, 15, 42, 0)
s = 98: (0, 53, 38, 48, 36, 61, 31, 30, 38, 14, 42, 0)
s = 99: (0, 104, 30, 32, 20, 90, 37, 51, 28, 15, 60, 0)
s = 100: (0, 57, 59, 78, 20, 84, 55, 55, 37, 11, 91, 0)
s = 101: (0, 63, 59, 91, 43, 101, 48, 68, 25, 9, 61, 0)
s = 102: (0, 97, 47, 73, 27, 82, 42, 74, 31, 16, 63, 0)
s = 103: (0, 96, 45, 37, 30, 54, 35, 31, 36, 8, 46, 0)
s = 104: (0, 95, 55, 70, 31, 101, 30, 35, 36, 16, 38, 0)
s = 105: (0, 66, 57, 41, 19, 115, 45, 50, 33, 11, 53, 0)
s = 106: (0, 81, 59, 53, 30, 84, 48, 73, 41, 17, 53, 0)
s = 107: (0, 57, 36, 67, 26, 60, 49, 59, 24, 8, 40, 0)
s = 108: (0, 71, 63, 74, 44, 120, 56, 48, 24, 17, 48, 0)
s = 109: (0, 116, 31, 49, 36, 70, 61, 59, 24, 8, 50, 0)
s = 110: (0, 54, 62, 68, 25, 68, 53, 38, 21, 13, 38, 0)
s = 111: (0, 88, 48, 40, 21, 39, 48, 35, 29, 16, 36, 0)
s = 112: (0, 94, 47, 65, 39, 67, 35, 49, 40, 11, 61, 0)
s = 113: (0, 53, 56, 76, 17, 65, 57, 51, 38, 9, 85, 0)
s = 114: (0, 111, 58, 68, 20, 95, 26, 36, 28, 10, 61, 0)
s = 115: (0, 63, 27, 61, 31, 107, 39, 39, 34, 17, 80, 0)
s = 116: (0, 54, 27, 60, 30, 52, 43, 39, 41, 8, 46, 0)
s = 117: (0, 63, 72, 71, 29, 114, 66, 34, 35, 9, 34, 0)
s = 118: (0, 46, 48, 63, 29, 81, 35, 62, 29, 14, 44, 0)
s = 119: (0, 63, 42, 89, 41, 76, 38, 59, 26, 10, 40, 0)
s = 120: (0, 94, 50, 65, 22, 108, 48, 54, 50, 19, 58, 0)
s = 121: (0, 94, 56, 78, 21, 41, 37, 46, 30, 7, 66, 0)
s = 122: (0, 55, 74, 40, 36, 72, 40, 59, 57, 16, 36, 0)
s = 123: (0, 109, 48, 40, 19, 111, 40, 34, 30, 14, 41, 0)
s = 124: (0, 49, 33, 59, 28, 66, 40, 46, 29, 10, 56, 0)
s = 125: (0, 89, 55, 77, 20, 49, 45, 27, 29, 12, 43, 0)
s = 126: (0, 119, 69, 66, 21, 59, 46, 49, 26, 17, 83, 0)
s = 127: (0, 69, 83, 57, 28, 93, 28, 49, 33, 17, 83, 0)
s = 128: (0, 95, 57, 48, 29, 87, 38, 35, 44, 12, 38, 0)
s = 129: (0, 74, 43, 71, 31, 85, 53, 72, 23, 14, 54, 0)
s = 130: (0, 105, 72, 44, 28, 46, 44, 31, 26, 11, 63, 0)
s = 131: (0, 68, 42, 40, 29, 51, 40, 51, 25, 10, 50, 0)
s = 132: (0, 49, 66, 36, 18, 49, 54, 35, 36, 10, 56, 0)
s = 133: (0, 65, 65, 44, 21, 63, 35, 44, 30, 9, 42, 0)
s = 134: (0, 103, 39, 45, 23, 37, 37, 86, 45, 22, 56, 0)
s = 135: (0, 83, 83, 57, 20, 63, 59, 38, 44, 9, 34, 0)
s = 136: (0, 73, 49, 50, 36, 84, 29, 37, 40, 11, 38, 0)
s = 137: (0, 44, 31, 44, 32, 60, 58, 62, 32, 18, 64, 0)
s = 138: (0, 54, 65, 69, 16, 78, 51, 56, 23, 9, 60, 0)
s = 139: (0, 61, 58, 56, 32, 102, 40, 29, 21, 11, 44, 0)
s = 140: (0, 67, 51, 76, 28, 36, 46, 36, 31, 10, 83, 0)
s = 141: (0, 77, 42, 57, 31, 83, 30, 31, 23, 8, 41, 0)
s = 142: (0, 66, 33, 71, 28, 75, 38, 51, 49, 9, 78, 0)
s = 143: (0, 48, 41, 48, 29, 61, 28, 35, 33, 8, 44, 0)
s = 144: (0, 100, 45, 59, 25, 50, 46, 49, 34, 15, 51, 0)
s = 145: (0, 96, 43, 55, 29, 56, 35, 94, 31, 8, 73, 0)
s = 146: (0, 99, 43, 43, 39, 84, 35, 75, 24, 11, 56, 0)
s = 147: (0, 60, 31, 33, 25, 66, 29, 82, 36, 10, 57, 0)
s = 148: (0, 76, 62, 86, 20, 60, 54, 28, 42, 17, 58, 0)
s = 149: (0, 82, 68, 41, 21, 91, 29, 58, 23, 13, 81, 0)
s = 150: (0, 77, 50, 37, 25, 72, 23, 36, 49, 13, 60, 0)
s = 151: (0, 78, 54, 68, 42, 81, 47, 59, 25, 12, 43, 0)
s = 152: (0, 69, 31, 81, 35, 57, 38, 68, 49, 14, 66, 0)
s = 153: (0, 76, 58, 62, 37, 64, 33, 48, 19, 9, 50, 0)
s = 154: (0, 88, 59, 50, 20, 90, 56, 50, 33, 15, 40, 0)
s = 155: (0, 66, 28, 68, 21, 90, 28, 62, 44, 9, 44, 0)
s = 156: (0, 88, 67, 35, 30, 45, 28, 33, 38, 20, 82, 0)
s = 157: (0, 85, 43, 63, 21, 69, 44, 58, 43, 18, 58, 0)
s = 158: (0, 102, 45, 40, 18, 60, 47, 47, 43, 8, 69, 0)
s = 159: (0, 81, 62, 68, 27, 118, 51, 33, 25, 13, 33, 0)
s = 160: (0, 54, 86, 55, 17, 39, 48, 31, 26, 17, 42, 0)
s = 161: (0, 83, 44, 49, 35, 67, 53, 36, 23, 12, 35, 0)
s = 162: (0, 64, 51, 61, 25, 88, 30, 48, 24, 14, 78, 0)
s = 163: (0, 80, 50, 42, 32, 59, 42, 49, 19, 9, 30, 0)
s = 164: (0, 92, 74, 94, 22, 62, 36, 53, 42, 16, 74, 0)
s = 165: (0, 123, 38, 45, 17, 73, 35, 38, 34, 16, 57, 0)
s = 166: (0, 71, 29, 39, 33, 55, 55, 86, 52, 16, 66, 0)
s = 167: (0, 91, 40, 92, 47, 83, 51, 66, 33, 11, 38, 0)
s = 168: (0, 72, 37, 43, 33, 76, 63, 67, 29, 12, 50, 0)
s = 169: (0, 63, 30, 63, 20, 82, 48, 52, 44, 12, 43, 0)
s = 170: (0, 77, 43, 59, 31, 44, 55, 35, 34, 8, 35, 0)
s = 171: (0, 60, 40, 92, 24, 50, 54, 38, 40, 11, 70, 0)
s = 172: (0, 130, 33, 43, 31, 74, 64, 35, 38, 14, 87, 0)
s = 173: (0, 69, 46, 45, 41, 84, 67, 69, 35, 14, 42, 0)
s = 174: (0, 73, 53, 74, 28, 66, 49, 67, 25, 15, 49, 0)
s = 175: (0, 71, 58, 101, 18, 72, 40, 33, 37, 12, 47, 0)
s = 176: (0, 58, 43, 48, 31, 54, 46, 32, 32, 12, 43, 0)
s = 177: (0, 74, 40, 54, 19, 43, 25, 27, 30, 14, 92, 0)
s = 178: (0, 76, 44, 58, 32, 82, 40, 36, 32, 13, 52, 0)
s = 179: (0, 97, 55, 43, 22, 70, 39, 42, 29, 11, 38, 0)
s = 180: (0, 93, 38, 69, 24, 77, 27, 59, 37, 9, 39, 0)
s = 181: (0, 75, 51, 104, 32, 42, 31, 90, 26, 14, 54, 0)
s = 182: (0, 111, 42, 37, 25, 110, 39, 56, 20, 10, 36, 0)
s = 183: (0, 122, 62, 57, 50, 47, 41, 66, 34, 7, 77, 0)
s = 184: (0, 63, 77, 62, 16, 59, 31, 73, 43, 12, 57, 0)
s = 185: (0, 58, 75, 48, 46, 76, 45, 48, 43, 14, 36, 0)
s = 186: (0, 84, 61, 58, 27, 47, 44, 54, 29, 11, 69, 0)
s = 187: (0, 93, 52, 59, 19, 80, 37, 35, 40, 17, 77, 0)
s = 188: (0, 45, 54, 72, 28, 43, 49, 63, 26, 9, 40, 0)
s = 189: (0, 77, 29, 77, 28, 71, 36, 58, 52, 7, 38, 0)
s = 190: (0, 58, 33, 50, 20, 75, 60, 46, 37, 10, 72, 0)
s = 191: (0, 82, 51, 51, 23, 86, 46, 46, 50, 10, 71, 0)
s = 192: (0, 65, 56, 36, 20, 61, 81, 46, 32, 21, 51, 0)
s = 193: (0, 48, 71, 69, 35, 59, 46, 29, 24, 13, 58, 0)
s = 194: (0, 91, 46, 102, 22, 101, 43, 49, 43, 14, 56, 0)
s = 195: (0, 95, 31, 41, 38, 60, 37, 75, 32, 9, 41, 0)
s = 196: (0, 87, 71, 56, 33, 67, 52, 58, 23, 15, 57, 0)
s = 197: (0, 84, 38, 53, 19, 62, 69, 33, 26, 9, 93, 0)
s = 198: (0, 93, 62, 65, 26, 98, 58, 62, 37, 21, 55, 0)
s = 199: (0, 58, 56, 46, 25, 59, 44, 40, 21, 18, 42, 0)
s = 200: (0, 86, 36, 56, 24, 66, 53, 30, 50, 9, 44, 0)
************************************************************************
ES/LS-VALUES:
jobnr.   ES(i)    LS(i)
------------------------------------------------------------------------
  0        0        0
  1        0       49
  2        0       64
  3        0       73
  4       11       61
  5       14       70
  6       14       65
  7       21       73
  8       26       79
  9       22       81
 10       11       72
 11       29       83
************************************************************************
BIG-M-VALUES:
M1 = 21, M2 = 144
************************************************************************
